p cnf 22 136
1 2 3 -4 0
1 2 -3 4 0
1 -2 3 4 0
1 -2 -3 -4 0
-1 2 3 4 0
-1 2 -3 -4 0
-1 -2 3 -4 0
-1 -2 -3 4 0
5 6 -7 0
5 -6 7 0
-5 6 7 0
-5 -6 -7 0
8 9 10 11 12 -13 0
8 9 10 11 -12 13 0
8 9 10 -11 12 13 0
8 9 10 -11 -12 -13 0
8 9 -10 11 12 13 0
8 9 -10 11 -12 -13 0
8 9 -10 -11 12 -13 0
8 9 -10 -11 -12 13 0
8 -9 10 11 12 13 0
8 -9 10 11 -12 -13 0
8 -9 10 -11 12 -13 0
8 -9 10 -11 -12 13 0
8 -9 -10 11 12 -13 0
8 -9 -10 11 -12 13 0
8 -9 -10 -11 12 13 0
8 -9 -10 -11 -12 -13 0
-8 9 10 11 12 13 0
-8 9 10 11 -12 -13 0
-8 9 10 -11 12 -13 0
-8 9 10 -11 -12 13 0
-8 9 -10 11 12 -13 0
-8 9 -10 11 -12 13 0
-8 9 -10 -11 12 13 0
-8 9 -10 -11 -12 -13 0
-8 -9 10 11 12 -13 0
-8 -9 10 11 -12 13 0
-8 -9 10 -11 12 13 0
-8 -9 10 -11 -12 -13 0
-8 -9 -10 11 12 13 0
-8 -9 -10 11 -12 -13 0
-8 -9 -10 -11 12 -13 0
-8 -9 -10 -11 -12 13 0
8 14 15 0
8 -14 -15 0
-8 14 -15 0
-8 -14 15 0
1 9 16 17 18 0
1 9 16 -17 -18 0
1 9 -16 17 -18 0
1 9 -16 -17 18 0
1 -9 16 17 -18 0
1 -9 16 -17 18 0
1 -9 -16 17 18 0
1 -9 -16 -17 -18 0
-1 9 16 17 -18 0
-1 9 16 -17 18 0
-1 9 -16 17 18 0
-1 9 -16 -17 -18 0
-1 -9 16 17 18 0
-1 -9 16 -17 -18 0
-1 -9 -16 17 -18 0
-1 -9 -16 -17 18 0
5 10 16 19 20 0
5 10 16 -19 -20 0
5 10 -16 19 -20 0
5 10 -16 -19 20 0
5 -10 16 19 -20 0
5 -10 16 -19 20 0
5 -10 -16 19 20 0
5 -10 -16 -19 -20 0
-5 10 16 19 -20 0
-5 10 16 -19 20 0
-5 10 -16 19 20 0
-5 10 -16 -19 -20 0
-5 -10 16 19 20 0
-5 -10 16 -19 -20 0
-5 -10 -16 19 -20 0
-5 -10 -16 -19 20 0
2 6 11 17 19 -21 0
2 6 11 17 -19 21 0
2 6 11 -17 19 21 0
2 6 11 -17 -19 -21 0
2 6 -11 17 19 21 0
2 6 -11 17 -19 -21 0
2 6 -11 -17 19 -21 0
2 6 -11 -17 -19 21 0
2 -6 11 17 19 21 0
2 -6 11 17 -19 -21 0
2 -6 11 -17 19 -21 0
2 -6 11 -17 -19 21 0
2 -6 -11 17 19 -21 0
2 -6 -11 17 -19 21 0
2 -6 -11 -17 19 21 0
2 -6 -11 -17 -19 -21 0
-2 6 11 17 19 21 0
-2 6 11 17 -19 -21 0
-2 6 11 -17 19 -21 0
-2 6 11 -17 -19 21 0
-2 6 -11 17 19 -21 0
-2 6 -11 17 -19 21 0
-2 6 -11 -17 19 21 0
-2 6 -11 -17 -19 -21 0
-2 -6 11 17 19 -21 0
-2 -6 11 17 -19 21 0
-2 -6 11 -17 19 21 0
-2 -6 11 -17 -19 -21 0
-2 -6 -11 17 19 21 0
-2 -6 -11 17 -19 -21 0
-2 -6 -11 -17 19 -21 0
-2 -6 -11 -17 -19 21 0
3 14 18 20 0
3 14 -18 -20 0
3 -14 18 -20 0
3 -14 -18 20 0
-3 14 18 -20 0
-3 14 -18 20 0
-3 -14 18 20 0
-3 -14 -18 -20 0
7 12 15 -22 0
7 12 -15 22 0
7 -12 15 22 0
7 -12 -15 -22 0
-7 12 15 22 0
-7 12 -15 -22 0
-7 -12 15 -22 0
-7 -12 -15 22 0
4 13 21 -22 0
4 13 -21 22 0
4 -13 21 22 0
4 -13 -21 -22 0
-4 13 21 22 0
-4 13 -21 -22 0
-4 -13 21 -22 0
-4 -13 -21 22 0
